z3_origin/1599121979347401000.txt
sat
(:max-memory          18.52
 :memory              18.32
 :nlsat-arith-var     2
 :nlsat-atoms         20
 :nlsat-bool-var      1
 :nlsat-clauses       7
 :nlsat-conflicts     3
 :nlsat-decisions     1
 :nlsat-propagations  27
 :nlsat-stages        6
 :num-allocs          72596
 :rlimit-count        2976
 :solve-eqs-elim-vars 2
 :solve-eqs-steps     10
 :time                0.00
 :total-time          0.02)
